4 
5  14 27 51 
6  07 22 36 51 
7  08 23 38 53 
8  08 23 38 53 
9  08 23 38 53 
10  10 25 40 55 
11  10 25 40 55 
12  10 25 40 55 
13  10 26 41 56 
14  11 26 41 56 
15  10 24 39 54 
16  09 24 39 54 
17  09 24 39 54 
18  09 24 39 54 
19  10 24 39 54 
20  09 24 39 54 
21  09 24 39 
22  09 
23  
0 
